c Sudoku solution
p cnf 729 0
132 0
167 0
186 0
211 0
249 0
328 0
336 0
363 0
385 0
445 0
553 0
577 0
596 0
623 0
646 0
669 0
694 0
675 0
726 0
416 0
735 0
838 0
889 0
893 0
995 0
951 0
759 0
821 0
974 0
876 0
966 0
256 0
284 0
483 0
462 0
561 0
865 0
155 0
268 0
225 0
515 0
618 0
522 0
588 0
682 0
458 0
544 0
657 0
539 0
631 0
434 0
427 0
124 0
141 0
929 0
342 0
354 0
852 0
847 0
764 0
814 0
781 0
912 0
987 0
717 0
933 0
743 0
948 0
113 0
237 0
319 0
273 0
292 0
397 0
371 0
479 0
491 0
772 0
798 0
178 0
199 0
